NAME: berlin52
TYPE: TSP
COMMENT: BLUB bLUB BLUB bLUB BLUB bLUB BLUB bLUB BLUB bLUB BLUB bLUB BLUB bLUB BLUB bLUB BLUB bLUB BLUB bLUB BLUB bLUB BLUB bLUB BLUB bLUB BLUB bLUB BLUB bLUB BLUB bLUB BLUB bLUB BLUB bLUB BLUB bLUB BLUB bLUB BLUB bLUB BLUB bLUB BLUB bLUB BLUB bLUB BLUB bLUB BLUB bLUB
DIMENSION: 6
EDGE_WEIGHT_TYPE: EUC_2D
NODE_COORD_SECTION
1 40.0 30.0
2 20.0 20.0
3 20.0 10.0
4 40.0 50.0
5 60.0 20.0
6 70.0 80.0
EOF